db/inputs/916931901262423462048535342822329402.smt2
(set-logic QF_FP)
(declare-const x0 (_ FloatingPoint 8 24))
(assert (fp.gt (fp.neg x0) (fp.sub RNE x0 x0)))
(assert (fp.leq (fp.div RNE x0 x0) (fp.add RNE x0 x0)))
(assert (fp.eq (fp.neg x0) (fp.mul RNE x0 x0)))
(check-sat)
