db/data/916931901262423462048535342822329402.z3.out
unsat
-------------------
1.172608275
